47 25 25 47 47 47 25 25 25 47 47 25 25 47 25 25 25 25 25 47 47 47 47 25 47 47 47 47 47 25 25 25 25 25 47 47 47 47 47 47 25 25 47 47 25 47 47 25 25 47 25 47 47 47 47 25 47 25 47 25 25 47 47 25 47 25 25 25 25 47 47 25 25 25 47 25 25 25 25 25 25 25 47 47 25 25 47 47 25 25 47 25 47 25 25 25 47 25 25 47 25 47 47 25 47 47 25 47 47 25 47 47 47 25 25 47 25 47 25 25 47 47 25 25 25 47 25 47 47 25 25 47 47 47 47 47 25 47 25 25 25 25 47 47 25 25 25 47 47 25 47 47 47 25 47 47 47 25 25 25 25 25 25 25 25 47 47 25 47 47 25 47 47 25 25 25 25 25 47 47 25 25 25 47 25 25 47 47 25 47 25 25 25 25 25 25 47 47 25 25 47 47 47 25 47 47 25 47 47 47 25 47 25 47 47 25 47 25 25 47 47 25 47 47 25 25 47 47 47 25 25 25 47 47 47 25 47 47 47 25 47 47 25 47 25 47 47 47 47 47 25 25 47 25 25 47 25 47 47 47 47 47 25 25 25 47 25 47 25 47 25 47 47 25 25 47 47 25 47 25 47 47 25 47 47 25 25 47 25 47 47 47 25 47 25 47 25 25 25 25 25 25 25 47 25 25 25 47 25 47 47 25 47 25 47 25 25 47 25 25 47 47 25 47 25 25 25 25 25 47 25 25 47 25 47 25 47 25 47 47 47 47 47 25 47 25 47 47 25 47 25 47 25 25 25 25 25 47 25 25 25 25 47 47 47 25 47 25 25 47 47 25 25 47 25 47 47 47 25 47 25 25 25 25 25 47 25 25 25 25 47 25 47 25 47 25 25 47 25 47 25 47 47 25 25 47 47 25 47 47 47 47 25 25 25 25 47 25 47 47 47 25 47 25 25 25 25 25 47 25 47 47 47 25 47 25 25 25 25 47 25 47 25 25 47 25 25 25 47 47 47 25 47 25 25 47 47 25 25 25 25 47 25 47 25 47 47 25 25 47 47 25 47 47 25 25 25 25 47 47 25 25 47 47 47 47 47 25 47 47 25 47 25 25 25 25 25 25 25 25 47 47 25 25 47 25 47 47 25 25 25 25 25 47 25 47 25 47 47 47 25 25 25 25 25 25 47 25 25 47 25 25 47 25 25 25 25 47 47 47 47 47 47 25 25 47 47 25 25 47 47 25 47 47 47 47 47 25 25 25 47 25 25 25 47 25 25 47 25 47 25 47 25 25 47 25 47 47 25 25 25 47 25 47 25 47 25 25 47 25 25 47 47 25 47 25 25 25 47 25 47 25 25 25 25 47 25 47 25 47 47 25 25 25 47 47 47 25 47 47 25 47 25 47 47 47 47 47 47 47 25 47 47 25 47 47 47 47 25 25 25 25 25 47 25 25 25 47 25 47 25 25 25 25 25 47 25 47 25 47 25 25 25 47 25 47 25 25 47 47 25 47 47 25 25 47 25 25 25 25 47 47 47 47 47 47 25 47 25 47 47 47 47 47 25 25 47 47 25 25 25 25 47 47 25 25 25 47 25 25 47 25 47 25 47 47 47 25 25 25 47 47 47 25 47 47 25 25 25 25 25 25 25 47 47 47 47 47 25 25 25 47 25 47 25 47 25 47 47 47 47 25 25 25 47 47 25 47 47 25 25 47 47 25 47 25 47 25 25 47 25 25 47 25 47 47 25 25 25 47 47 25 25 47 25 47 47 25 25 25 47 25 25 25 47 47 25 25 47 25 25 25 25 47 25 25 25 25 25 25 25 47 25 25 25 47 47 47 47 47 25 25 25 25 25 47 47 47 47 25 47 47 25 25 25 47 25 25 47 25 47 47 47 47 47 47 25 25 47 25 25 47 25 25 47 47 47 25 25 25 25 47 25 47 47 25 25 47 47 47 47 25 47 25 47 25 25 25 47 47 25 47 25 25 47 47 47 25 47 47 25 47 47 25 25 25 47 25 25 25 25 47 25 47 25 47 47 25 47 25 47 47 47 47 25 25 25 47 25 47 47 47 25 25 47 47 25 25 47 25 25 47 25 25 25 25 25 25 25 47 25 47 47 25 25 47 25 25 25 47 47 47 25 47 47 47 25 25 25 25 25 25 47 25 47 25 25 47 25 25 25 25 47 47 25 47 25 47 47 47 25 25 25 25 25 25 47 25 25 47 25 25 25 25 47 47 25 47 25 25 